
Gurobi 9.5.1 (mac64[x86], gurobi_cl) logging started Wed Sep 18 08:08:11 2024

Set parameter Username
Set parameter LogFile to value "gurobi.log"
Academic license - for non-commercial use only - expires 2025-09-17
Using license file /Users/fredericbusch/gurobi.lic

Gurobi 9.5.1 (mac64[x86], gurobi_cl) logging started Wed Sep 18 08:08:17 2024

Set parameter Username
Set parameter LogFile to value "gurobi.log"
Academic license - for non-commercial use only - expires 2025-09-17
Using license file /Users/fredericbusch/gurobi.lic

Gurobi 9.5.1 (mac64[x86], gurobi_cl) logging started Wed Sep 18 08:26:11 2024

Set parameter Username
Set parameter LogFile to value "gurobi.log"
Academic license - for non-commercial use only - expires 2025-09-17
Using license file /Users/fredericbusch/gurobi.lic

Gurobi 9.5.1 (mac64[x86], gurobi_cl) logging started Wed Sep 18 08:51:35 2024

Set parameter Username
Set parameter LogFile to value "gurobi.log"
Academic license - for non-commercial use only - expires 2025-09-17
Using license file /Users/fredericbusch/gurobi.lic

Gurobi 9.5.1 (mac64[x86], gurobi_cl) logging started Wed Sep 18 08:52:10 2024

Set parameter Username
Set parameter LogFile to value "gurobi.log"
Academic license - for non-commercial use only - expires 2025-09-17
Using license file /Users/fredericbusch/gurobi.lic

Gurobi 9.5.1 (mac64[x86], gurobi_cl) logging started Wed Sep 18 08:52:42 2024

Set parameter Username
Set parameter LogFile to value "gurobi.log"
Academic license - for non-commercial use only - expires 2025-09-17
Using license file /Users/fredericbusch/gurobi.lic

Gurobi 9.5.1 (mac64[x86], gurobi_cl) logging started Wed Sep 18 09:27:27 2024

Set parameter Username
Set parameter LogFile to value "gurobi.log"
Academic license - for non-commercial use only - expires 2025-09-17
Using license file /Users/fredericbusch/gurobi.lic

Gurobi 9.5.1 (mac64[x86], gurobi_cl) logging started Wed Sep 18 09:33:14 2024

Set parameter Username
Set parameter LogFile to value "gurobi.log"
Academic license - for non-commercial use only - expires 2025-09-17
Using license file /Users/fredericbusch/gurobi.lic

Gurobi 9.5.1 (mac64[x86], gurobi_cl) logging started Wed Sep 18 09:33:28 2024

Set parameter Username
Set parameter LogFile to value "gurobi.log"
Academic license - for non-commercial use only - expires 2025-09-17
Using license file /Users/fredericbusch/gurobi.lic

Gurobi 9.5.1 (mac64[x86], gurobi_cl) logging started Wed Sep 18 12:34:12 2024

Set parameter Username
Set parameter LogFile to value "gurobi.log"
Academic license - for non-commercial use only - expires 2025-09-17
Using license file /Users/fredericbusch/gurobi.lic

Gurobi 9.5.1 (mac64[x86], gurobi_cl) logging started Wed Sep 18 12:34:32 2024

Set parameter Username
Set parameter LogFile to value "gurobi.log"
Academic license - for non-commercial use only - expires 2025-09-17
Using license file /Users/fredericbusch/gurobi.lic

Gurobi 9.5.1 (mac64[x86], gurobi_cl) logging started Wed Sep 18 12:35:34 2024

Set parameter Username
Set parameter LogFile to value "gurobi.log"
Academic license - for non-commercial use only - expires 2025-09-17
Using license file /Users/fredericbusch/gurobi.lic

Gurobi 9.5.1 (mac64[x86], gurobi_cl) logging started Wed Sep 18 12:36:38 2024

Set parameter Username
Set parameter LogFile to value "gurobi.log"
Academic license - for non-commercial use only - expires 2025-09-17
Using license file /Users/fredericbusch/gurobi.lic

Gurobi 9.5.1 (mac64[x86], gurobi_cl) logging started Wed Sep 18 12:37:14 2024

Set parameter Username
Set parameter LogFile to value "gurobi.log"
Academic license - for non-commercial use only - expires 2025-09-17
Using license file /Users/fredericbusch/gurobi.lic

Gurobi 9.5.1 (mac64[x86], gurobi_cl) logging started Wed Sep 18 12:37:34 2024

Set parameter Username
Set parameter LogFile to value "gurobi.log"
Academic license - for non-commercial use only - expires 2025-09-17
Using license file /Users/fredericbusch/gurobi.lic

Gurobi 9.5.1 (mac64[x86], gurobi_cl) logging started Wed Sep 18 12:37:48 2024

Set parameter Username
Set parameter LogFile to value "gurobi.log"
Academic license - for non-commercial use only - expires 2025-09-17
Using license file /Users/fredericbusch/gurobi.lic

Gurobi 9.5.1 (mac64[x86], gurobi_cl) logging started Wed Sep 18 12:38:05 2024

Set parameter Username
Set parameter LogFile to value "gurobi.log"
Academic license - for non-commercial use only - expires 2025-09-17
Using license file /Users/fredericbusch/gurobi.lic

Gurobi 9.5.1 (mac64[x86], gurobi_cl) logging started Wed Sep 18 12:38:19 2024

Set parameter Username
Set parameter LogFile to value "gurobi.log"
Academic license - for non-commercial use only - expires 2025-09-17
Using license file /Users/fredericbusch/gurobi.lic

Gurobi 9.5.1 (mac64[x86], gurobi_cl) logging started Wed Sep 18 12:38:39 2024

Set parameter Username
Set parameter LogFile to value "gurobi.log"
Academic license - for non-commercial use only - expires 2025-09-17
Using license file /Users/fredericbusch/gurobi.lic

Gurobi 9.5.1 (mac64[x86], gurobi_cl) logging started Wed Sep 18 12:40:02 2024

Set parameter Username
Set parameter LogFile to value "gurobi.log"
Academic license - for non-commercial use only - expires 2025-09-17
Using license file /Users/fredericbusch/gurobi.lic

Gurobi 9.5.1 (mac64[x86], gurobi_cl) logging started Wed Sep 18 12:40:52 2024

Set parameter Username
Set parameter LogFile to value "gurobi.log"
Academic license - for non-commercial use only - expires 2025-09-17
Using license file /Users/fredericbusch/gurobi.lic

Gurobi 9.5.1 (mac64[x86], gurobi_cl) logging started Wed Sep 18 12:41:16 2024

Set parameter Username
Set parameter LogFile to value "gurobi.log"
Academic license - for non-commercial use only - expires 2025-09-17
Using license file /Users/fredericbusch/gurobi.lic

Gurobi 9.5.1 (mac64[x86], gurobi_cl) logging started Wed Sep 18 12:43:10 2024

Set parameter Username
Set parameter LogFile to value "gurobi.log"
Academic license - for non-commercial use only - expires 2025-09-17
Using license file /Users/fredericbusch/gurobi.lic

Gurobi 9.5.1 (mac64[x86], gurobi_cl) logging started Wed Sep 18 12:44:31 2024

Set parameter Username
Set parameter LogFile to value "gurobi.log"
Academic license - for non-commercial use only - expires 2025-09-17
Using license file /Users/fredericbusch/gurobi.lic
